13 0 6 4 9 11 8 5 10 3 1 7 2 12 0 163
999999999 13 44 81 92 40 9 53 41 65 60 78 17 
13 999999999 32 12 19 58 99 3 26 77 38 12 14 
44 32 999999999 48 44 43 64 2 64 29 38 6 8 
81 12 48 999999999 51 66 80 73 99 71 41 66 73 
92 19 44 51 999999999 21 29 82 75 10 41 26 12 
40 58 43 66 21 999999999 58 9 8 15 10 48 78 
9 99 64 80 29 58 999999999 80 80 37 48 32 72 
53 3 2 73 82 9 80 999999999 84 84 86 80 30 
41 26 64 99 75 8 80 84 999999999 47 4 2 81 
65 77 29 71 10 15 37 84 47 999999999 36 12 45 
60 38 38 41 41 10 48 86 4 36 999999999 76 93 
78 12 6 66 26 48 32 80 2 12 76 999999999 97 
17 14 8 73 12 78 72 30 81 45 93 97 999999999 
